c Read 408 clauses.  153 variables
c Breaking ties randomly with seed 1
c Placed 408 terms into 76 buckets.
c Bucket 3 Reduced to term with 7 nodes
c Bucket 6 Reduced to term with 7 nodes
c Bucket 9 Reduced to term with 9 nodes
c Bucket 12 Reduced to term with 7 nodes
c Bucket 15 Reduced to term with 7 nodes
c Bucket 18 Reduced to term with 7 nodes
c Bucket 21 Reduced to term with 7 nodes
c Bucket 24 Reduced to term with 7 nodes
c Bucket 27 Reduced to term with 9 nodes
c Bucket 30 Reduced to term with 11 nodes
c Bucket 33 Reduced to term with 13 nodes
c Bucket 36 Reduced to term with 11 nodes
c Bucket 39 Reduced to term with 17 nodes
c Bucket 42 Reduced to term with 17 nodes
c Bucket 45 Reduced to term with 9 nodes
c Bucket 48 Reduced to term with 15 nodes
c Bucket 51 Reduced to term with 7 nodes
c Bucket 54 Reduced to term with 11 nodes
c Bucket 57 Reduced to term with 11 nodes
c Bucket 60 Reduced to term with 31 nodes
c Bucket 63 Reduced to term with 7 nodes
c Bucket 66 Reduced to term with 9 nodes
c Bucket 69 Reduced to term with 25 nodes
c Bucket 72 Reduced to term with 49 nodes
c Bucket 75 Reduced to term with 33 nodes
c Bucket 81 Reduced to term with 35 nodes
c Bucket 84 Reduced to term with 51 nodes
c Bucket 87 Reduced to term with 43 nodes
c Bucket 90 Reduced to term with 59 nodes
c Bucket 96 Reduced to term with 47 nodes
c Bucket 99 Reduced to term with 37 nodes
c Bucket 102 Reduced to term with 29 nodes
c Bucket 111 Reduced to term with 17 nodes
s UNSATISFIABLE

c Cache statistics
c ----------------
c Unique Access:  8410
c Unique Chain:   103
c Unique Hit:     1674
c Unique Miss:    6560
c => Hit rate =   0.20
c Operator Hits:  7105
c Operator Miss:  10130
c => Hit rate =   0.41
c Swap count =    0

c BDD statistics
c ----------------
c Total BDD nodes produced: 6560
c Input variables: 153
c Input clauses: 408
c Total clauses: 39537
c Unused+non-BDD clause IDs: 1920 (4.9%)
c Maximum live clauses: 30925
c Deleted clauses: 39129
c Final live clauses: 408
c Total variables: 6711
c Elapsed seconds: 0.031
-rw-r--r--  1 bryant  staff  1540701 Mar 11 15:33 urquhart-li-03.lrat
c parsed a formula with 153 variables and 408 clauses
c VERIFIED
c allocated 1024 158788 1530
c Added clauses = 39537.  Deleted clauses = 8612.  Max live clauses = 30925
c verification time = 0.02 secs
